
  12    4
  10   10   10   10

   0   0   0   0   0   6 2 3 4 5 10 11 
   1  10  10  10  10   4 9 8 7 6 
   8  10  10  10  10   3 8 7 6 
   5  10  10  10  10   1 7 
   8  10  10  10  10   1 6 
   9  10  10  10  10   1 12
   3  10  10  10  10   1 12
  10  10  10  10  10   1 12
  10  10  10  10  10   1 12
   1  10  10  10  10   1 12
   2  10  10  10  10   1 12
   0   0   0   0   0   0 
